\ Model Bin
\ LP format - for model browsing. Use MPS format to capture full model detail.
Maximize
  min
Subject To
 R0: 39 open[0,0] <= 100
 R1: 39 open[0,1] <= 150
 R2: 39 open[0,2] <= 150
 R3: 39 open[0,3] <= 100
 R4: 34 open[1,0] <= 100
 R5: 34 open[1,1] <= 150
 R6: 34 open[1,2] <= 150
 R7: 34 open[1,3] <= 100
 R8: 10 open[2,0] <= 100
 R9: 10 open[2,1] <= 150
 R10: 10 open[2,2] <= 150
 R11: 10 open[2,3] <= 100
 R12: 12 open[3,0] <= 100
 R13: 12 open[3,1] <= 150
 R14: 12 open[3,2] <= 150
 R15: 12 open[3,3] <= 100
 R16: 29 open[4,0] <= 100
 R17: 29 open[4,1] <= 150
 R18: 29 open[4,2] <= 150
 R19: 29 open[4,3] <= 100
 R20: 30 open[5,0] <= 100
 R21: 30 open[5,1] <= 150
 R22: 30 open[5,2] <= 150
 R23: 30 open[5,3] <= 100
 R24: 31 open[6,0] <= 100
 R25: 31 open[6,1] <= 150
 R26: 31 open[6,2] <= 150
 R27: 31 open[6,3] <= 100
 R28: 47 open[7,0] <= 100
 R29: 47 open[7,1] <= 150
 R30: 47 open[7,2] <= 150
 R31: 47 open[7,3] <= 100
 R32: 49 open[8,0] <= 100
 R33: 49 open[8,1] <= 150
 R34: 49 open[8,2] <= 150
 R35: 49 open[8,3] <= 100
 R36: 40 open[9,0] <= 100
 R37: 40 open[9,1] <= 150
 R38: 40 open[9,2] <= 150
 R39: 40 open[9,3] <= 100
 R40: 1.5 open[0,0] + 1.5 open[1,0] + 1.5 open[2,0] + 1.5 open[3,0]
   + 2.5 open[4,0] + 2.5 open[5,0] + 3.5 open[6,0] + 1.5 open[7,0]
   + 3.5 open[8,0] + 3.5 open[9,0] <= 245
 R41: 1.5 open[0,1] + 1.5 open[1,1] + 1.5 open[2,1] + 1.5 open[3,1]
   + 2.5 open[4,1] + 2.5 open[5,1] + 3.5 open[6,1] + 1.5 open[7,1]
   + 3.5 open[8,1] + 3.5 open[9,1] <= 245
 R42: 1.5 open[0,2] + 1.5 open[1,2] + 1.5 open[2,2] + 1.5 open[3,2]
   + 2.5 open[4,2] + 2.5 open[5,2] + 3.5 open[6,2] + 1.5 open[7,2]
   + 3.5 open[8,2] + 3.5 open[9,2] <= 245
 R43: 1.5 open[0,3] + 1.5 open[1,3] + 1.5 open[2,3] + 1.5 open[3,3]
   + 2.5 open[4,3] + 2.5 open[5,3] + 3.5 open[6,3] + 1.5 open[7,3]
   + 3.5 open[8,3] + 3.5 open[9,3] <= 245
 R44: 0.01625 open[0,0] + 0.0141666666666667 open[1,0]
   + 0.00416666666666667 open[2,0] + 0.005 open[3,0]
   + 0.0241666666666667 open[4,0] + 0.025 open[5,0] + 0.03875 open[6,0]
   + 0.0195833333333333 open[7,0] + 0.06125 open[8,0] + 0.05 open[9,0]
   - min >= 0
 R45: 0.0108333333333333 open[0,1] + 0.00944444444444444 open[1,1]
   + 0.00277777777777778 open[2,1] + 0.00333333333333333 open[3,1]
   + 0.0161111111111111 open[4,1] + 0.0166666666666667 open[5,1]
   + 0.0258333333333333 open[6,1] + 0.0130555555555556 open[7,1]
   + 0.0408333333333333 open[8,1] + 0.0333333333333333 open[9,1] - min
   >= 0
 R46: 0.0108333333333333 open[0,2] + 0.00944444444444444 open[1,2]
   + 0.00277777777777778 open[2,2] + 0.00333333333333333 open[3,2]
   + 0.0161111111111111 open[4,2] + 0.0166666666666667 open[5,2]
   + 0.0258333333333333 open[6,2] + 0.0130555555555556 open[7,2]
   + 0.0408333333333333 open[8,2] + 0.0333333333333333 open[9,2] - min
   >= 0
 R47: 0.01625 open[0,3] + 0.0141666666666667 open[1,3]
   + 0.00416666666666667 open[2,3] + 0.005 open[3,3]
   + 0.0241666666666667 open[4,3] + 0.025 open[5,3] + 0.03875 open[6,3]
   + 0.0195833333333333 open[7,3] + 0.06125 open[8,3] + 0.05 open[9,3]
   - min >= 0
 R48: open[0,0] + open[0,1] + open[0,2] + open[0,3] = 1
 R49: open[1,0] + open[1,1] + open[1,2] + open[1,3] = 1
 R50: open[2,0] + open[2,1] + open[2,2] + open[2,3] = 1
 R51: open[3,0] + open[3,1] + open[3,2] + open[3,3] = 1
 R52: open[4,0] + open[4,1] + open[4,2] + open[4,3] = 1
 R53: open[5,0] + open[5,1] + open[5,2] + open[5,3] = 1
 R54: open[6,0] + open[6,1] + open[6,2] + open[6,3] = 1
 R55: open[7,0] + open[7,1] + open[7,2] + open[7,3] = 1
 R56: open[8,0] + open[8,1] + open[8,2] + open[8,3] = 1
 R57: open[9,0] + open[9,1] + open[9,2] + open[9,3] = 1
Bounds
Binaries
 open[0,0] open[0,1] open[0,2] open[0,3] open[1,0] open[1,1] open[1,2]
 open[1,3] open[2,0] open[2,1] open[2,2] open[2,3] open[3,0] open[3,1]
 open[3,2] open[3,3] open[4,0] open[4,1] open[4,2] open[4,3] open[5,0]
 open[5,1] open[5,2] open[5,3] open[6,0] open[6,1] open[6,2] open[6,3]
 open[7,0] open[7,1] open[7,2] open[7,3] open[8,0] open[8,1] open[8,2]
 open[8,3] open[9,0] open[9,1] open[9,2] open[9,3]
End
